[VALIDATOR STDOUT]
Checking plan: /home/jfan5/Safety-gen/runs/benchmark/optic/ferry_20260201_171235/ferry/optic_results/ferry-l36-c19-s36001.plan
Plan executed successfully - checking goal
Plan valid
Final value: 86 

Successful plans:
Value: 86
 /home/jfan5/Safety-gen/runs/benchmark/optic/ferry_20260201_171235/ferry/optic_results/ferry-l36-c19-s36001.plan 86
